c Generated map
c Size: 13 * 13, weights in range: 1 to 10, walls: False, with ratio 0.2
c dim 4 of 4
c
p sp 169 312
c graph contains 169 nodes and 312 arcs
c
a 1 14 5
a 14 1 5
a 1 2 8
a 2 1 8
a 2 15 5
a 15 2 5
a 2 3 3
a 3 2 3
a 3 16 4
a 16 3 4
a 3 4 4
a 4 3 4
a 4 17 7
a 17 4 7
a 4 5 5
a 5 4 5
a 5 18 6
a 18 5 6
a 5 6 10
a 6 5 10
a 6 19 5
a 19 6 5
a 6 7 7
a 7 6 7
a 7 20 1
a 20 7 1
a 7 8 1
a 8 7 1
a 8 21 8
a 21 8 8
a 8 9 1
a 9 8 1
a 9 22 8
a 22 9 8
a 9 10 2
a 10 9 2
a 10 23 10
a 23 10 10
a 10 11 4
a 11 10 4
a 11 24 7
a 24 11 7
a 11 12 1
a 12 11 1
a 12 25 7
a 25 12 7
a 12 13 8
a 13 12 8
a 13 26 7
a 26 13 7
a 14 27 6
a 27 14 6
a 14 15 8
a 15 14 8
a 15 28 4
a 28 15 4
a 15 16 6
a 16 15 6
a 16 29 3
a 29 16 3
a 16 17 8
a 17 16 8
a 17 30 3
a 30 17 3
a 17 18 6
a 18 17 6
a 18 31 9
a 31 18 9
a 18 19 4
a 19 18 4
a 19 32 2
a 32 19 2
a 19 20 3
a 20 19 3
a 20 33 7
a 33 20 7
a 20 21 9
a 21 20 9
a 21 34 10
a 34 21 10
a 21 22 9
a 22 21 9
a 22 35 7
a 35 22 7
a 22 23 3
a 23 22 3
a 23 36 6
a 36 23 6
a 23 24 3
a 24 23 3
a 24 37 9
a 37 24 9
a 24 25 8
a 25 24 8
a 25 38 9
a 38 25 9
a 25 26 7
a 26 25 7
a 26 39 9
a 39 26 9
a 27 40 1
a 40 27 1
a 27 28 4
a 28 27 4
a 28 41 3
a 41 28 3
a 28 29 2
a 29 28 2
a 29 42 2
a 42 29 2
a 29 30 2
a 30 29 2
a 30 43 6
a 43 30 6
a 30 31 6
a 31 30 6
a 31 44 10
a 44 31 10
a 31 32 1
a 32 31 1
a 32 45 1
a 45 32 1
a 32 33 5
a 33 32 5
a 33 46 5
a 46 33 5
a 33 34 6
a 34 33 6
a 34 47 9
a 47 34 9
a 34 35 8
a 35 34 8
a 35 48 9
a 48 35 9
a 35 36 7
a 36 35 7
a 36 49 1
a 49 36 1
a 36 37 7
a 37 36 7
a 37 50 8
a 50 37 8
a 37 38 8
a 38 37 8
a 38 51 7
a 51 38 7
a 38 39 9
a 39 38 9
a 39 52 8
a 52 39 8
a 40 53 2
a 53 40 2
a 40 41 1
a 41 40 1
a 41 54 9
a 54 41 9
a 41 42 9
a 42 41 9
a 42 55 4
a 55 42 4
a 42 43 6
a 43 42 6
a 43 56 6
a 56 43 6
a 43 44 6
a 44 43 6
a 44 57 2
a 57 44 2
a 44 45 3
a 45 44 3
a 45 58 5
a 58 45 5
a 45 46 2
a 46 45 2
a 46 59 3
a 59 46 3
a 46 47 1
a 47 46 1
a 47 60 1
a 60 47 1
a 47 48 3
a 48 47 3
a 48 61 6
a 61 48 6
a 48 49 5
a 49 48 5
a 49 62 5
a 62 49 5
a 49 50 1
a 50 49 1
a 50 63 1
a 63 50 1
a 50 51 9
a 51 50 9
a 51 64 1
a 64 51 1
a 51 52 3
a 52 51 3
a 52 65 9
a 65 52 9
a 53 66 7
a 66 53 7
a 53 54 2
a 54 53 2
a 54 67 2
a 67 54 2
a 54 55 4
a 55 54 4
a 55 68 8
a 68 55 8
a 55 56 9
a 56 55 9
a 56 69 2
a 69 56 2
a 56 57 2
a 57 56 2
a 57 70 1
a 70 57 1
a 57 58 8
a 58 57 8
a 58 71 3
a 71 58 3
a 58 59 5
a 59 58 5
a 59 72 9
a 72 59 9
a 59 60 6
a 60 59 6
a 60 73 5
a 73 60 5
a 60 61 3
a 61 60 3
a 61 74 2
a 74 61 2
a 61 62 5
a 62 61 5
a 62 75 8
a 75 62 8
a 62 63 1
a 63 62 1
a 63 76 4
a 76 63 4
a 63 64 4
a 64 63 4
a 64 77 9
a 77 64 9
a 64 65 10
a 65 64 10
a 65 78 4
a 78 65 4
a 66 79 9
a 79 66 9
a 66 67 7
a 67 66 7
a 67 80 9
a 80 67 9
a 67 68 10
a 68 67 10
a 68 81 1
a 81 68 1
a 68 69 10
a 69 68 10
a 69 82 3
a 82 69 3
a 69 70 2
a 70 69 2
a 70 83 9
a 83 70 9
a 70 71 8
a 71 70 8
a 71 84 6
a 84 71 6
a 71 72 8
a 72 71 8
a 72 85 6
a 85 72 6
a 72 73 7
a 73 72 7
a 73 86 9
a 86 73 9
a 73 74 7
a 74 73 7
a 74 87 5
a 87 74 5
a 74 75 2
a 75 74 2
a 75 88 10
a 88 75 10
a 75 76 9
a 76 75 9
a 76 89 6
a 89 76 6
a 76 77 4
a 77 76 4
a 77 90 4
a 90 77 4
a 77 78 9
a 78 77 9
a 78 91 5
a 91 78 5
a 79 92 2
a 92 79 2
a 79 80 4
a 80 79 4
a 80 93 7
a 93 80 7
a 80 81 7
a 81 80 7
a 81 94 4
a 94 81 4
a 81 82 8
a 82 81 8
a 82 95 5
a 95 82 5
a 82 83 4
a 83 82 4
a 83 96 6
a 96 83 6
a 83 84 10
a 84 83 10
a 84 97 1
a 97 84 1
a 84 85 2
a 85 84 2
a 85 98 3
a 98 85 3
a 85 86 2
a 86 85 2
a 86 99 8
a 99 86 8
a 86 87 10
a 87 86 10
a 87 100 7
a 100 87 7
a 87 88 4
a 88 87 4
a 88 101 6
a 101 88 6
a 88 89 9
a 89 88 9
a 89 102 10
a 102 89 10
a 89 90 2
a 90 89 2
a 90 103 10
a 103 90 10
a 90 91 9
a 91 90 9
a 91 104 1
a 104 91 1
a 92 105 9
a 105 92 9
a 92 93 2
a 93 92 2
a 93 106 5
a 106 93 5
a 93 94 2
a 94 93 2
a 94 107 8
a 107 94 8
a 94 95 5
a 95 94 5
a 95 108 8
a 108 95 8
a 95 96 2
a 96 95 2
a 96 109 3
a 109 96 3
a 96 97 3
a 97 96 3
a 97 110 7
a 110 97 7
a 97 98 8
a 98 97 8
a 98 111 1
a 111 98 1
a 98 99 2
a 99 98 2
a 99 112 6
a 112 99 6
a 99 100 6
a 100 99 6
a 100 113 10
a 113 100 10
a 100 101 5
a 101 100 5
a 101 114 1
a 114 101 1
a 101 102 5
a 102 101 5
a 102 115 3
a 115 102 3
a 102 103 8
a 103 102 8
a 103 116 6
a 116 103 6
a 103 104 7
a 104 103 7
a 104 117 6
a 117 104 6
a 105 118 6
a 118 105 6
a 105 106 6
a 106 105 6
a 106 119 9
a 119 106 9
a 106 107 2
a 107 106 2
a 107 120 7
a 120 107 7
a 107 108 8
a 108 107 8
a 108 121 5
a 121 108 5
a 108 109 3
a 109 108 3
a 109 122 9
a 122 109 9
a 109 110 10
a 110 109 10
a 110 123 6
a 123 110 6
a 110 111 7
a 111 110 7
a 111 124 1
a 124 111 1
a 111 112 6
a 112 111 6
a 112 125 4
a 125 112 4
a 112 113 7
a 113 112 7
a 113 126 6
a 126 113 6
a 113 114 6
a 114 113 6
a 114 127 8
a 127 114 8
a 114 115 2
a 115 114 2
a 115 128 4
a 128 115 4
a 115 116 4
a 116 115 4
a 116 129 2
a 129 116 2
a 116 117 8
a 117 116 8
a 117 130 3
a 130 117 3
a 118 131 7
a 131 118 7
a 118 119 7
a 119 118 7
a 119 132 4
a 132 119 4
a 119 120 7
a 120 119 7
a 120 133 8
a 133 120 8
a 120 121 10
a 121 120 10
a 121 134 7
a 134 121 7
a 121 122 3
a 122 121 3
a 122 135 4
a 135 122 4
a 122 123 8
a 123 122 8
a 123 136 10
a 136 123 10
a 123 124 4
a 124 123 4
a 124 137 3
a 137 124 3
a 124 125 10
a 125 124 10
a 125 138 4
a 138 125 4
a 125 126 5
a 126 125 5
a 126 139 1
a 139 126 1
a 126 127 3
a 127 126 3
a 127 140 2
a 140 127 2
a 127 128 2
a 128 127 2
a 128 141 9
a 141 128 9
a 128 129 7
a 129 128 7
a 129 142 8
a 142 129 8
a 129 130 9
a 130 129 9
a 130 143 4
a 143 130 4
a 131 144 3
a 144 131 3
a 131 132 9
a 132 131 9
a 132 145 5
a 145 132 5
a 132 133 7
a 133 132 7
a 133 146 1
a 146 133 1
a 133 134 9
a 134 133 9
a 134 147 10
a 147 134 10
a 134 135 1
a 135 134 1
a 135 148 9
a 148 135 9
a 135 136 2
a 136 135 2
a 136 149 1
a 149 136 1
a 136 137 8
a 137 136 8
a 137 150 1
a 150 137 1
a 137 138 9
a 138 137 9
a 138 151 5
a 151 138 5
a 138 139 10
a 139 138 10
a 139 152 3
a 152 139 3
a 139 140 2
a 140 139 2
a 140 153 4
a 153 140 4
a 140 141 1
a 141 140 1
a 141 154 2
a 154 141 2
a 141 142 3
a 142 141 3
a 142 155 4
a 155 142 4
a 142 143 4
a 143 142 4
a 143 156 4
a 156 143 4
a 144 157 9
a 157 144 9
a 144 145 2
a 145 144 2
a 145 158 8
a 158 145 8
a 145 146 2
a 146 145 2
a 146 159 3
a 159 146 3
a 146 147 6
a 147 146 6
a 147 160 8
a 160 147 8
a 147 148 4
a 148 147 4
a 148 161 8
a 161 148 8
a 148 149 3
a 149 148 3
a 149 162 10
a 162 149 10
a 149 150 3
a 150 149 3
a 150 163 2
a 163 150 2
a 150 151 4
a 151 150 4
a 151 164 6
a 164 151 6
a 151 152 8
a 152 151 8
a 152 165 7
a 165 152 7
a 152 153 2
a 153 152 2
a 153 166 9
a 166 153 9
a 153 154 8
a 154 153 8
a 154 167 2
a 167 154 2
a 154 155 10
a 155 154 10
a 155 168 6
a 168 155 6
a 155 156 4
a 156 155 4
a 156 169 9
a 169 156 9
a 157 158 1
a 158 157 1
a 158 159 6
a 159 158 6
a 159 160 4
a 160 159 4
a 160 161 5
a 161 160 5
a 161 162 9
a 162 161 9
a 162 163 5
a 163 162 5
a 163 164 1
a 164 163 1
a 164 165 8
a 165 164 8
a 165 166 2
a 166 165 2
a 166 167 1
a 167 166 1
a 167 168 6
a 168 167 6
a 168 169 7
a 169 168 7
